
Gurobi 11.0.3 (linux64) logging started Thu Nov 21 23:07:26 2024

Set parameter LogFile to value "/home/yihong/Coding/OR_SUC/SUC_results_bigM100000_thread4/case24_ieee_rts_theta0.5_epsilon0.05_gurobi_seed600000_num_gen100_N_WDR100_load_scaling_factor1_proposed_T12quadra_cost.txt"
Set parameter TimeLimit to value 3600
Gurobi Optimizer version 11.0.3 build v11.0.3rc0 (linux64 - "Ubuntu 20.04.6 LTS")

CPU model: AMD EPYC 7532 32-Core Processor, instruction set [SSE2|AVX|AVX2]
Thread count: 64 physical cores, 128 logical processors, using up to 4 threads

Optimize a model with 28530 rows, 14981 columns and 657050 nonzeros
Model fingerprint: 0x6bd5395a
Model has 1200 quadratic constraints
Variable types: 13781 continuous, 1200 integer (1200 binary)
Coefficient statistics:
  Matrix range     [3e-04, 2e+03]
  QMatrix range    [2e-03, 8e-03]
  QLMatrix range   [1e-03, 6e+01]
  Objective range  [1e+00, 1e+00]
  Bounds range     [1e+00, 1e+00]
  RHS range        [1e+00, 9e+03]
Presolve removed 23401 rows and 6437 columns
Presolve time: 0.20s
Presolved: 5129 rows, 8544 columns, 29581 nonzeros
Presolved model has 1200 quadratic constraint(s)
Variable types: 7344 continuous, 1200 integer (1200 binary)

Root relaxation: objective 2.624296e+04, 4095 iterations, 0.08 seconds (0.10 work units)

    Nodes    |    Current Node    |     Objective Bounds      |     Work
 Expl Unexpl |  Obj  Depth IntInf | Incumbent    BestBd   Gap | It/Node Time

     0     0 26242.9610    0   12          - 26242.9610      -     -    0s
     0     0 258495.775    0  271          - 258495.775      -     -    0s
     0     0 378132.271    0  193          - 378132.271      -     -    0s
     0     0 378134.772    0  192          - 378134.772      -     -    0s
     0     0 378203.794    0  131          - 378203.794      -     -    0s
     0     0 378205.406    0  131          - 378205.406      -     -    0s
     0     0 378205.705    0  131          - 378205.705      -     -    0s
     0     2 378205.705    0  131          - 378205.705      -     -    1s
H  250   237                    378359.55175 378227.474  0.03%   9.7    2s
*  250   237              69    378359.55175 378227.474  0.03%   9.9    2s

Cutting planes:
  Gomory: 87
  Implied bound: 297
  MIR: 29
  Flow cover: 113

Explored 290 nodes (13629 simplex iterations) in 2.52 seconds (2.78 work units)
Thread count was 4 (of 128 available processors)

Solution count 2: 378360 378360 

Optimal solution found (tolerance 1.00e-03)
Warning: max constraint violation (1.0536e-07) exceeds tolerance
Best objective 3.783595517465e+05, best bound 3.782274737639e+05, gap 0.0349%
